(set-logic QF_BV)
(declare-fun _substvar_308_ () (_ BitVec 63))
(declare-fun _substvar_296_ () (_ BitVec 63))
(declare-fun _substvar_698_ () (_ BitVec 63))
(declare-fun _substvar_817_ () Bool)
(declare-fun _substvar_733_ () (_ BitVec 63))
(assert (and true true true true true true true true true true true true true true true true true true true true true true true true true true true true true true true true true true true true true true true true true true true true true true true true true true true true true true true true true true true true true true true true true true true true true true true true true true true true true true true true true true true true true true true true true true true true true true true true true true true true true true true true true true true true true true true true true true true true true true true true true true true true true true true true true true true true true true true true true true true true true true true true true true true true true true true true true true true true true true true true true true true true true true true true true true true true true true true true true true true true true true true true true true true true true true true true true true true true true true true true true true true true true true true true true true true true true true true true true true true true true true true true true true true true true true true true true true true true true true true true true true true true true true true true true true true true true true true true true true true true true true true true true true true true true true true true true true true true true true true true true true true true (= _substvar_296_ (_ bv0 63)) (ite _substvar_817_ (= _substvar_308_ (_ bv0 63)) (= _substvar_308_ (concat (_ bv0 62) (bvxor ((_ extract 62 62) _substvar_296_) (_ bv0 1))))) (= _substvar_733_ (concat ((_ extract 61 0) _substvar_308_) (bvxor ((_ extract 62 62) _substvar_308_) ((_ extract 61 61) _substvar_308_)))) (= _substvar_698_ (concat ((_ extract 61 0) _substvar_733_) (_ bv0 1))) true true true true true true true true true true true true true true true true true true true true true true true true true true true true true true true true true true true true true true true true true true true true true true true true true true true true true true true true true true true true true true true true true true true true true true true true true true true true true true true true true true true true true true true true true true true true true true true true true true true true true true true true true true true true true true true true true true true true true true true true true true true true true true true true true true true true (= (or false false false false false false false false false false false false false false false false false false false false false false false false false (= _substvar_698_ (_ bv0 63)) false false) false)))
(check-sat)
(exit)
